************************************************************************
file with basedata            : mm10_.bas
initial value random generator: 19747
************************************************************************
projects                      :  1
jobs (incl. supersource/sink ):  12
horizon                       :  77
RESOURCES
  - renewable                 :  2   R
  - nonrenewable              :  2   N
  - doubly constrained        :  0   D
************************************************************************
PROJECT INFORMATION:
pronr.  #jobs rel.date duedate tardcost  MPM-Time
    1     10      0       17        9       17
************************************************************************
PRECEDENCE RELATIONS:
jobnr.    #modes  #successors   successors
   1        1          3           2   3   4
   2        3          2           5  11
   3        3          2           5  11
   4        3          2           9  11
   5        3          1           6
   6        3          3           7   8  10
   7        3          1           9
   8        3          1           9
   9        3          1          12
  10        3          1          12
  11        3          1          12
  12        1          0        
************************************************************************
REQUESTS/DURATIONS:
jobnr. mode duration  R 1  R 2  N 1  N 2
------------------------------------------------------------------------
  1      1     0       0    0    0    0
  2      1     1       7    0    7    0
         2     4       0    4    7    0
         3     6       0    3    7    0
  3      1     1       0    6    2    0
         2     7       0    6    0    6
         3    10       8    0    0    6
  4      1     1       7    0    6    0
         2     2       0    5    0    8
         3    10       0    5    5    0
  5      1     1       9    0    9    0
         2     8       0    6    8    0
         3    10       8    0    8    0
  6      1     3       0    9    0    7
         2     3       3    0    0    6
         3     4       0    8    7    0
  7      1     5       5    0    0    6
         2     8       0    7    4    0
         3    10       0    6    0    4
  8      1     2       4    0    8    0
         2     3       0    6    0    4
         3     7       4    0    0    4
  9      1     7       0    6    8    0
         2     8       6    0    7    0
         3     9       0    3    6    0
 10      1     3       7    0    7    0
         2     4       0    5    6    0
         3     5       0    3    0    1
 11      1     4       0    2    4    0
         2     6       4    0    0    1
         3     6       0    2    0    1
 12      1     0       0    0    0    0
************************************************************************
RESOURCEAVAILABILITIES:
  R 1  R 2  N 1  N 2
   11    9   42   17
************************************************************************
MAXIMAL LAGS:
from  to  type  delay
    1   12   ES      0
    1    2   ES      0
    2   12   ES      0
    1    3   ES      0
    3   12   ES      0
    1    4   ES      0
    4   12   ES      0
    1    5   ES      0
    5   12   ES      0
    1    6   ES      0
    6   12   ES      0
    1    7   ES      0
    7   12   ES      0
    1    8   ES      0
    8   12   ES      0
    1    9   ES      0
    9   12   ES      0
    1   10   ES      0
   10   12   ES      0
    1   11   ES      0
   11   12   ES      0
    1   12   ES      0
    2    5   SS      8
    2    5   SE     -9
    2    5   ES    -12
    2    5   EE     11
    2   11   SS     -4
    2   11   SE     -5
    2   11   ES     -5
    2   11   EE     -8
    3    5   SS     11
    3    5   SE     -9
    3    5   ES      9
    3    5   EE     11
    3   11   SS      5
    3   11   SE    -10
    3   11   ES      6
    3   11   EE      1
    4    9   SS    -11
    4    9   SE    -12
    4    9   ES    -10
    4    9   EE     -6
    4   11   SS     -5
    4   11   SE      4
    4   11   ES      7
    4   11   EE    -12
    5    6   SS      5
    5    6   SE     -6
    5    6   ES     10
    5    6   EE      8
    6    7   SS     10
    6    7   SE      5
    6    7   ES      1
    6    7   EE     -5
    6    8   SS      2
    6    8   SE      6
    6    8   ES     -4
    6    8   EE    -12
    6   10   SS     12
    6   10   SE     -7
    6   10   ES     10
    6   10   EE      1
    7    9   SS     -2
    7    9   SE     -4
    7    9   ES     -8
    7    9   EE     -6
    8    9   SS     12
    8    9   SE     -2
    8    9   ES     -9
    8    9   EE    -10
************************************************************************
